
Gurobi 6.0.4 (win64) logging started 06/18/15 17:38:09

Read LP format model from file E:\Eigene Dateien\Downloads\Michi shit\VRPTWMS2\instances\mip\fuel\N10-C_DV100-C_SV25_F5_4_No_1.lp
Reading time = 0.01 seconds
(null): 621 rows, 288 columns, 2553 nonzeros
Optimize a model with 621 rows, 288 columns and 2553 nonzeros
Model has 1000 quadratic constraints
Coefficient statistics:
  Matrix range    [1e+00, 1e+06]
  Objective range [3e+04, 1e+07]
  Bounds range    [1e+00, 1e+06]
  RHS range       [1e+00, 1e+06]
Presolve removed 65 rows and 44 columns
Presolve time: 0.05s
Presolved: 1852 rows, 892 columns, 10415 nonzeros
Variable types: 648 continuous, 244 integer (202 binary)

Root relaxation: objective 6.399121e+06, 154 iterations, 0.00 seconds

    Nodes    |    Current Node    |     Objective Bounds      |     Work
 Expl Unexpl |  Obj  Depth IntInf | Incumbent    BestBd   Gap | It/Node Time

     0     0 6399120.75    0   45          - 6399120.75      -     -    0s
     0     0 1.1797e+07    0   39          - 1.1797e+07      -     -    0s
     0     0 1.2075e+07    0   43          - 1.2075e+07      -     -    0s
     0     0 1.2164e+07    0   53          - 1.2164e+07      -     -    0s
     0     0 1.2190e+07    0   50          - 1.2190e+07      -     -    0s
     0     0 1.2190e+07    0   47          - 1.2190e+07      -     -    0s
     0     0 1.2191e+07    0   45          - 1.2191e+07      -     -    0s
     0     0 1.2191e+07    0   40          - 1.2191e+07      -     -    0s
     0     2 1.2191e+07    0   40          - 1.2191e+07      -     -    0s

Cutting planes:
  Gomory: 3
  Cover: 4
  Implied bound: 1
  Clique: 4
  MIR: 4
  GUB cover: 8

Explored 1561 nodes (10980 simplex iterations) in 0.61 seconds
Thread count was 4 (of 4 available processors)

Model is infeasible
Best objective -, best bound -, gap -
